results_rootrelaxation/bin018_060_006.srr.sol
solution status: optimal solution found
objective value:                 2.77555756156289e-17
_var2794_                          0.0350022787618655 	(obj:0)
_var2799_                          0.0356971166947787 	(obj:0)
_var2808_                           0.112183295948725 	(obj:0)
_var2812_                            0.20656898896056 	(obj:0)
_var2814_                           0.234523726299001 	(obj:0)
_var2815_                         0.00626234556846975 	(obj:0)
_var2863_                           0.103898091570954 	(obj:0)
_var2870_                           0.117744531003113 	(obj:0)
_var2872_                           0.228682386686047 	(obj:0)
_var2877_                          0.0781060099631632 	(obj:0)
_var2878_                           0.231427020719128 	(obj:0)
_var2879_                          0.0553855407298504 	(obj:0)
_var2881_                           0.176788109324617 	(obj:0)
_var2890_                           0.178117221801988 	(obj:0)
_var2920_                           0.146473473127194 	(obj:0)
_var2923_                          0.0136867727595623 	(obj:0)
_var2935_                           0.186331555856582 	(obj:0)
_var2945_                           0.183844235197283 	(obj:0)
_var2953_                          0.0335446829826187 	(obj:0)
_var2959_                          0.0211721876037257 	(obj:0)
_var2969_                            0.35067004062724 	(obj:0)
_var2971_                          0.0677072366990477 	(obj:0)
_var2973_                           0.133769850640245 	(obj:0)
_var2974_                          0.0351417450178461 	(obj:0)
_var2988_                           0.016578922761021 	(obj:0)
_var3005_                           0.242412025443833 	(obj:0)
_var3010_                           0.093243719267263 	(obj:0)
_var3019_                          0.0258279052196456 	(obj:0)
_var3020_                           0.142910203134391 	(obj:0)
_var3024_                           0.250577649397872 	(obj:0)
_var3025_                           0.254112963060599 	(obj:0)
_var3029_                          0.0856074352798767 	(obj:0)
_var3031_                           0.281262582940916 	(obj:0)
_var3034_                          0.0957954319868652 	(obj:0)
_var3035_                          0.0320458412868637 	(obj:0)
_var3042_                           0.227572266132411 	(obj:0)
_var3044_                          0.0481545249617059 	(obj:0)
_var3045_                           0.213858411484547 	(obj:0)
_var3049_                           0.350888163508934 	(obj:0)
_var3054_                          0.0920182028918571 	(obj:0)
_var3058_                          0.0836504818252286 	(obj:0)
_var3064_                           0.360924013837498 	(obj:0)
_var3071_                           0.100762539962747 	(obj:0)
_var3073_                          0.0558363790368709 	(obj:0)
_var3077_                           0.201323444235782 	(obj:0)
_var3087_                            0.23913891337445 	(obj:0)
_var3094_                             0.2111123597061 	(obj:0)
_var3095_                          0.0676644637808247 	(obj:0)
_var3097_                           0.204540250653204 	(obj:0)
_var3100_                           0.144383019849744 	(obj:0)
_var3104_                           0.175167171689553 	(obj:0)
_var3106_                           0.298939133973144 	(obj:0)
_var3108_                           0.143045961373926 	(obj:0)
_var3109_                           0.031389395418185 	(obj:0)
_var3110_                           0.033914566953926 	(obj:0)
_var3112_                           0.173608755610022 	(obj:0)
_var3113_                         0.00452486723237641 	(obj:0)
_var3114_                           0.246020247242849 	(obj:0)
_var3117_                          0.0408076761151176 	(obj:0)
_var3120_                          0.0138636625457863 	(obj:0)
_var3123_                          0.0223429085395022 	(obj:0)
_var3124_                           0.113096937566487 	(obj:0)
_var3125_                           0.265489056814172 	(obj:0)
_var3126_                          0.0691942296116789 	(obj:0)
_var3130_                           0.152195234783503 	(obj:0)
_var3133_                            0.30470352869629 	(obj:0)
_var3136_                          0.0997884863818196 	(obj:0)
_var3137_                           0.093627291517377 	(obj:0)
_var3140_                           0.314736930573947 	(obj:0)
_var3142_                           0.252794624282599 	(obj:0)
_var3143_                          0.0602542644294232 	(obj:0)
_var3144_                           0.156573275217316 	(obj:0)
_var3145_                          0.0544040542521261 	(obj:0)
_var3147_                           0.167605009928991 	(obj:0)
_var3149_                           0.228574292033131 	(obj:0)
_var3150_                          0.0117360617972358 	(obj:0)
_var3152_                           0.296833529248862 	(obj:0)
_var3156_                          0.0916103408324044 	(obj:0)
_var3158_                          0.0189092958283632 	(obj:0)
_var3161_                          0.0307593567580157 	(obj:0)
_var3162_                           0.151611739061682 	(obj:0)
_var3163_                           0.169272365088488 	(obj:0)
_var3165_                          0.0606189754351113 	(obj:0)
_var3166_                           0.021082737086746 	(obj:0)
_var3170_                            0.29295382690289 	(obj:0)
_var3171_                          0.0580478818002931 	(obj:0)
_var3172_                          0.0505391767302069 	(obj:0)
_var3175_                         0.00877257840132349 	(obj:0)
_var3180_                           0.235995194451245 	(obj:0)
_var3185_                            0.16689114356643 	(obj:0)
_var3188_                          0.0156624027062076 	(obj:0)
_var3191_                           0.131505162843104 	(obj:0)
_var3192_                           0.132153005773026 	(obj:0)
_var3198_                          0.0601201819802762 	(obj:0)
_var3200_                          0.0840343322329007 	(obj:0)
_var3202_                          0.0035066209572788 	(obj:0)
_var3203_                           0.217973935589363 	(obj:0)
_var3204_                           0.171595108066386 	(obj:0)
_var3205_                           0.270535774702743 	(obj:0)
_var3206_                           0.115416792757797 	(obj:0)
_var3208_                          0.0518079330628039 	(obj:0)
_var3210_                          0.0795789069428289 	(obj:0)
_var3211_                            0.12843166403036 	(obj:0)
_var3213_                          0.0323283907944643 	(obj:0)
_var3214_                           0.127071251010286 	(obj:0)
_var3215_                           0.123192203466559 	(obj:0)
_var3216_                           0.150989671060152 	(obj:0)
_var3218_                           0.118603136444801 	(obj:0)
_var3219_                          0.0292580356537994 	(obj:0)
_var3220_                          0.0298471065646604 	(obj:0)
_var3225_                          0.0421939483897081 	(obj:0)
_var3226_                           0.134050209922849 	(obj:0)
_var3230_                          0.0529480846952075 	(obj:0)
_var3231_                          0.0026834610637405 	(obj:0)
_var3232_                          0.0735170430194843 	(obj:0)
_var3233_                           0.126728144800084 	(obj:0)
_var3234_                          0.0028212084181641 	(obj:0)
_var3235_                          0.0012780523991509 	(obj:0)
_var3236_                          0.0828815767308939 	(obj:0)
_var3239_                           0.159555157863559 	(obj:0)
_var3240_                           0.175395124588183 	(obj:0)
_var3242_                          0.0282659630747491 	(obj:0)
_var3244_                          0.0452257862861236 	(obj:0)
_var3245_                          0.0965335382400752 	(obj:0)
_var3247_                          0.0869261416282423 	(obj:0)
_var3248_                          0.0611340771626983 	(obj:0)
_var3252_                          0.0312540610526413 	(obj:0)
_var3253_                          0.0909959441260904 	(obj:0)
_var3255_                           0.125897548168417 	(obj:0)
_var3256_                          0.0413239037207007 	(obj:0)
_var3257_                           0.166767812527018 	(obj:0)
_var3261_                          0.0427649868649708 	(obj:0)
_var3264_                          0.0312285638244058 	(obj:0)
_var3266_                           0.189368598712211 	(obj:0)
_var3269_                          0.0197355559498371 	(obj:0)
_var3271_                          0.0461625113611141 	(obj:0)
_var3273_                          0.0808143575574691 	(obj:0)
_var3274_                          0.0454847575446784 	(obj:0)
_var3276_                          0.0621139887384053 	(obj:0)
_var3277_                          0.0640099354399845 	(obj:0)
_var3278_                          0.0533561464322673 	(obj:0)
_var3279_                          0.0417462791423318 	(obj:0)
_var3283_                          0.0156184493920506 	(obj:0)
_var3284_                          0.0133119795799987 	(obj:0)
_var3285_                          0.0406131712311137 	(obj:0)
_var3288_                          0.0987158367044868 	(obj:0)
_var3289_                          0.0371814891690044 	(obj:0)
_var3293_                           0.014549347822018 	(obj:0)
_var3296_                             0.1044526472646 	(obj:0)
_var3297_                          0.0195566674142741 	(obj:0)
